
Welcome to IBM(R) ILOG(R) CPLEX(R) Interactive Optimizer 22.1.1.0
  with Simplex, Mixed Integer & Barrier Optimizers
5725-A06 5725-A29 5724-Y48 5724-Y49 5724-Y54 5724-Y55 5655-Y21
Copyright IBM Corp. 1988, 2022.  All Rights Reserved.

Type 'help' for a list of available commands.
Type 'help' followed by a command name for more
information on commands.

CPLEX> Selected objective sense:  MINIMIZE
Selected objective  name:  00000000
Selected RHS        name:  RHS1
Selected bound      name:  BOUND
Problem 'ee.mps' read.
Read time = 0.02 sec. (3.14 ticks)
CPLEX> New value for time limit in seconds: 7200
CPLEX> New value for parallel optimization mode: -1
CPLEX> New value for default parallel thread count: 40
CPLEX> New value for mixed integer optimality gap tolerance: 1e-13
CPLEX> Version identifier: 22.1.1.0 | 2022-11-28 | 9160aff4d
CPXPARAM_Threads                                 40
CPXPARAM_Parallel                                -1
CPXPARAM_TimeLimit                               7200
CPXPARAM_MIP_Tolerances_MIPGap                   1e-13
Found incumbent of value 0.000000 after 0.00 sec. (0.31 ticks)
Tried aggregator 2 times.
MIP Presolve eliminated 180 rows and 2745 columns.
MIP Presolve modified 5862 coefficients.
Aggregator did 713 substitutions.
Reduced MIP has 3624 rows, 7739 columns, and 28646 nonzeros.
Reduced MIP has 7739 binaries, 0 generals, 0 SOSs, and 0 indicators.
Presolve time = 0.07 sec. (68.56 ticks)
Probing time = 0.03 sec. (5.31 ticks)
Tried aggregator 1 time.
Detecting symmetries...
Reduced MIP has 3624 rows, 7739 columns, and 28646 nonzeros.
Reduced MIP has 7739 binaries, 0 generals, 0 SOSs, and 0 indicators.
Presolve time = 0.02 sec. (21.83 ticks)
Probing time = 0.02 sec. (5.10 ticks)
Clique table members: 18552.
MIP emphasis: balance optimality and feasibility.
MIP search method: dynamic search.
Parallel mode: opportunistic, using up to 40 threads.
Root relaxation solution time = 0.08 sec. (63.04 ticks)

        Nodes                                         Cuts/
   Node  Left     Objective  IInf  Best Integer    Best Bound    ItCnt     Gap

*     0+    0                            0.0000  -1.31000e+13              --- 
*     0+    0                      -4.40000e+12  -1.31000e+13           197.73%
      0     0  -1.30900e+13    73  -4.40000e+12  -1.30900e+13     1925  197.50%
*     0+    0                      -1.30900e+13  -1.30900e+13             0.00%
      0     0  -1.30900e+13    63  -1.30900e+13      Cuts: 65     2455    0.00%
      0     0  -1.30900e+13    90  -1.30900e+13      Cuts: 58     2644    0.00%
      0     0  -1.30900e+13   107  -1.30900e+13      Cuts: 31     2676    0.00%
*     0+    0                      -1.30900e+13  -1.30900e+13             0.00%
*     0+    0                      -1.30900e+13  -1.30900e+13             0.00%
      0     2  -1.30900e+13   107  -1.30900e+13  -1.30900e+13     2676    0.00%
Elapsed time = 1.59 sec. (930.45 ticks, tree = 0.02 MB, solutions = 5)
    576    85  -1.30900e+13    49  -1.30900e+13  -1.30900e+13    16604    0.00%
    893   314  -1.30900e+13   131  -1.30900e+13  -1.30900e+13    75699    0.00%
   1090   338  -1.30900e+13   188  -1.30900e+13  -1.30900e+13    93993    0.00%
   1517   349  -1.30900e+13    54  -1.30900e+13  -1.30900e+13    96730    0.00%
*  1954   294      integral     0  -1.30900e+13  -1.30900e+13   113900    0.00%
   2224   354  -1.30900e+13   105  -1.30900e+13  -1.30900e+13   100495    0.00%
   2948   287        cutoff        -1.30900e+13  -1.30900e+13   148517    0.00%
   3689   354        cutoff        -1.30900e+13  -1.30900e+13   188576    0.00%
   4554   369        cutoff        -1.30900e+13  -1.30900e+13   191235    0.00%
   5412   575        cutoff        -1.30900e+13  -1.30900e+13   251001    0.00%
   7738  1826  -1.30900e+13   169  -1.30900e+13  -1.30900e+13   691569    0.00%
Elapsed time = 8.60 sec. (4033.05 ticks, tree = 8.48 MB, solutions = 11)
  10037  1910  -1.30900e+13   281  -1.30900e+13  -1.30900e+13   739953    0.00%
  11987  2373  -1.30900e+13   115  -1.30900e+13  -1.30900e+13   965001    0.00%
  13102  2455  -1.30900e+13    67  -1.30900e+13  -1.30900e+13  1023817    0.00%

Performing restart 1

Repeating presolve.
Tried aggregator 3 times.
MIP Presolve eliminated 870 rows and 2498 columns.
MIP Presolve added 24 rows and 0 columns.
MIP Presolve modified 1966 coefficients.
Aggregator did 306 substitutions.
Reduced MIP has 2428 rows, 4909 columns, and 17552 nonzeros.
Reduced MIP has 4909 binaries, 0 generals, 0 SOSs, and 0 indicators.
Presolve time = 0.08 sec. (78.04 ticks)
Tried aggregator 2 times.
MIP Presolve eliminated 39 rows and 77 columns.
Aggregator did 20 substitutions.
Reduced MIP has 2369 rows, 4810 columns, and 17168 nonzeros.
Reduced MIP has 4810 binaries, 0 generals, 0 SOSs, and 0 indicators.
Presolve time = 0.03 sec. (29.11 ticks)
Tried aggregator 1 time.
Reduced MIP has 2369 rows, 4810 columns, and 17168 nonzeros.
Reduced MIP has 4810 binaries, 0 generals, 0 SOSs, and 0 indicators.
Presolve time = 0.03 sec. (13.06 ticks)
Represolve time = 0.30 sec. (192.60 ticks)
  13436     0  -1.30900e+13   244  -1.30900e+13      Cuts: 13  1450710    0.00%
  13436     0  -1.30900e+13   286  -1.30900e+13      Cuts: 11  1450792    0.00%
  13436     0  -1.30900e+13   313  -1.30900e+13  ZeroHalf: 18  1451074    0.00%
  13436     0  -1.30900e+13   290  -1.30900e+13      Cuts: 16  1451381    0.00%
  13436     0  -1.30900e+13   330  -1.30900e+13      Cuts: 24  1451494    0.00%
  13436     0  -1.30900e+13   302  -1.30900e+13      Cuts: 10  1451574    0.00%
  13436     0  -1.30900e+13   413  -1.30900e+13      Cuts: 37  1451826    0.00%
  13436     0  -1.30900e+13   384  -1.30900e+13      Cuts: 24  1451992    0.00%
  13436     0  -1.30900e+13   363  -1.30900e+13      Cuts: 31  1452108    0.00%
  13436     0  -1.30900e+13   424  -1.30900e+13      Cuts: 27  1452260    0.00%
  13436     0  -1.30900e+13   395  -1.30900e+13      Cuts: 17  1452377    0.00%
  13436     0  -1.30900e+13   405  -1.30900e+13      Cuts: 32  1452538    0.00%
  13436     0  -1.30900e+13   365  -1.30900e+13      Cuts: 23  1452630    0.00%
  13436     0  -1.30900e+13   375  -1.30900e+13      Cuts: 19  1452693    0.00%
  13436     3        cutoff        -1.30900e+13  -1.30900e+13  1454830    0.00%
  14438    10  -1.30900e+13   219  -1.30900e+13  -1.30900e+13  1462923    0.00%
  14611     3  -1.30900e+13   388  -1.30900e+13  -1.30900e+13  1453527    0.00%
  14619    12  -1.30900e+13   265  -1.30900e+13  -1.30900e+13  1469542    0.00%

GUB cover cuts applied:  1
Clique cuts applied:  16
Cover cuts applied:  254
Flow cuts applied:  2
Mixed integer rounding cuts applied:  9
Zero-half cuts applied:  68
Lift and project cuts applied:  1
Gomory fractional cuts applied:  10

Root node processing (before b&c):
  Real time             =    1.05 sec. (928.91 ticks)
Parallel b&c, 40 threads:
  Real time             =   18.07 sec. (12879.05 ticks)
  Sync time (average)   =    5.20 sec.
  Wait time (average)   =    0.09 sec.
                          ------------
Total (root+branch&cut) =   19.12 sec. (13807.97 ticks)

Solution pool: 14 solutions saved.

MIP - Integer optimal solution:  Objective = -1.3089999490e+13
Solution time =   19.23 sec.  Iterations = 1516245  Nodes = 14644
Deterministic time = 13808.00 ticks  (717.88 ticks/sec)

CPLEX> Solution 'p15' written to file 'ee.sol'.
CPLEX> 